c colouring generated by benchmark framework
p edge 95 755
v 1 4
v 2 0
v 3 5
v 4 0
v 5 6
v 6 6
v 7 3
v 8 3
v 9 0
v 10 1
v 11 4
v 12 6
v 13 1
v 14 2
v 15 2
v 16 4
v 17 3
v 18 6
v 19 3
v 20 3
v 21 1
v 22 2
v 23 0
v 24 5
v 25 1
v 26 2
v 27 5
v 28 1
v 29 3
v 30 1
v 31 3
v 32 1
v 33 1
v 34 2
v 35 4
v 36 1
v 37 2
v 38 2
v 39 1
v 40 1
v 41 1
v 42 1
v 43 1
v 44 1
v 45 2
v 46 5
v 47 6
v 48 4
v 49 0
v 50 2
v 51 2
v 52 4
v 53 3
v 54 1
v 55 3
v 56 3
v 57 1
v 58 2
v 59 2
v 60 1
v 61 2
v 62 2
v 63 4
v 64 3
v 65 1
v 66 3
v 67 3
v 68 1
v 69 2
v 70 0
v 71 4
v 72 0
v 73 2
v 74 2
v 75 1
v 76 3
v 77 3
v 78 3
v 79 0
v 80 1
v 81 2
v 82 5
v 83 1
v 84 2
v 85 2
v 86 4
v 87 5
v 88 1
v 89 3
v 90 1
v 91 3
v 92 2
v 93 0
v 94 0
v 95 6
